
%FILE DATA:	Soccer Computational Problem for MiniZinc Models	%
%AUTHOR:	Jack Wall	%
%CONTACT:  	116397063@umail.ucc.ie			%
%LAST UPDATE:	03/19/2020, 16:23:29						%
%DESCRIPTION: 	270 games played with 36 games left				%


n=18; %number of teams

%Games to play
games=[|16,10|5,1|1,8|18,4|13,15|4,6|8,18|13,3|13,7|10,1|6,10|15,8|3,1|18,5|14,12|7,10|11,6|4,2|14,15|7,9|13,9|11,15|4,10|5,8|9,10|2,10|12,18|1,10|14,18|15,2|18,15|12,17|14,8|5,2|18,13|16,2|];

%Initial points
iPoints=[26,47,47,43,34,43,42,43,40,38,51,43,33,43,40,47,40,27];

%POSITION CONSTRAINTS
% [|teamID, operator, position|...]
% operators index:
%  1 for =  operator
%  2 for >  operator
%  3 for >= operator
%  4 for <  operator
%  5 for <= operator
positionConstraints=[|11,3,1|3,5,2|2,1,3|8,1,4|];